p edge 22 38
e 1 2
e 1 6
e 1 7
e 1 10
e 1 15
e 1 18
e 1 19
e 1 20
e 1 21
e 2 8
e 2 9
e 2 13
e 2 16
e 2 17
e 2 22
e 3 8
e 3 12
e 3 15
e 3 16
e 4 5
e 4 20
e 5 6
e 5 7
e 5 11
e 5 12
e 5 15
e 5 16
e 6 8
e 6 9
e 6 17
e 8 10
e 8 11
e 8 14
e 8 19
e 9 11
e 9 15
e 10 16
e 11 17
